#------------------------------------------------------------
# MULTI DATASET
#------------------------------------------------------------

         ndtset  2

#------------------------------------------------------------
# ALL DATASETS
#------------------------------------------------------------

          acell   3.0235615824E+01  3.0235615824E+01  3.0235615824E+01 
         diemac  2
          dtion  100
           ecut  30
         enunit  1
         getwfk  -1
         ionmov  1
          natom  16
          nband  32
           nkpt  1
          nstep  80
          ntime  300
         ntypat  4
      restartxf  -1
         tolmxf     1e-07
         tolrff      0.01
          typat  1 1 1 1 1 2 2 2 2 2 3 3 3 3 3 4
          znucl  1 6 7 8

#------------------------------------------------------------
# DATASET 1
#------------------------------------------------------------

        xangst1  -2.8188597421e+00 -1.8565303615e+00 -3.7458724861e-01
                 -3.4509680816e+00 -3.0894309060e-01 -8.8323145690e-01
                  3.8267241617e+00 -3.6534987593e-01  9.5121458890e-01
                  2.0071491111e+00 -2.1657514106e+00  7.2511819475e-01
                 -2.0978501079e+00  1.6013677841e+00 -5.5171305050e-01
                 -5.7132357015e-02  1.6942657596e+00 -2.8111542586e-01
                  9.9269627297e-01  7.8174212798e-01  5.2081433422e-02
                  2.8027979457e+00 -1.5987302014e-01  6.5185549704e-01
                  6.8378084463e-01 -5.7177878928e-01  2.0217406658e-01
                 -1.4748748127e+00 -3.6044213749e-01 -2.4644044053e-01
                  2.3132854312e+00  1.0154864558e+00  3.4590139659e-01
                  1.8601488378e+00 -1.1646755739e+00  5.7172066275e-01
                 -5.0471111700e-01 -1.1896287987e+00  5.9687686191e-02
                 -1.2916733664e+00  9.8244290748e-01 -4.0875916994e-01
                 -2.7425869898e+00 -8.4042540453e-01 -3.7746531445e-01
                 -4.7926030481e-02  2.9080934279e+00 -4.3644141945e-01

#------------------------------------------------------------
# DATASET 2
#------------------------------------------------------------

        xangst2   3.9737900000e+00  4.9147000000e-01 -3.3000000000e-02
                  2.5246400000e+00 -1.6697800000e+00 -3.6390000000e-02
                 -2.5741200000e+00  1.0251500000e+00  9.0890000000e-02
                 -2.3963600000e+00 -2.4639800000e+00  4.3510000000e-02
                 -3.3647400000e+00 -1.1854400000e+00 -3.4792000000e-01
                  2.8837900000e+00  4.0887000000e-01 -2.0820000000e-02
                  7.9064000000e-01 -4.5355000000e-01 -3.8200000000e-03
                  7.3714000000e-01  9.6793000000e-01  1.2400000000e-02
                 -1.4737600000e+00 -6.9316000000e-01  4.3120000000e-02
                 -5.7519000000e-01  1.6031400000e+00  4.1910000000e-02
                  2.0382900000e+00  1.4520800000e+00  1.6900000000e-03
                  2.1460300000e+00 -7.5807000000e-01 -2.5550000000e-02
                 -3.0857000000e-01 -1.2792400000e+00  1.3000000000e-04
                 -1.6451900000e+00  6.6203000000e-01  4.8330000000e-02
                 -2.5850200000e+00 -1.4967500000e+00  1.8802000000e-01
                 -8.7597000000e-01  2.7822700000e+00  5.8660000000e-02

