 P                                      
   1.00000000000000     
     4.0616348000000002    0.0000000000000000    0.0000000000000000
     0.0000000000000000    4.0616348000000002    0.0000000000000000
     0.0000000000000000    0.0000000000000000    5.2539807999999999
   P 
     4
Direct
  0.0000000000000000  0.0000000000000000  0.7078365037040086
  0.0000000000000000  0.0000000000000000  0.2921634962959914
  0.5000000000000000  0.5000000000000000  0.2078365037040086
  0.5000000000000000  0.5000000000000000  0.7921634962959914
 
  0.00000000E+00  0.00000000E+00  0.00000000E+00
  0.00000000E+00  0.00000000E+00  0.00000000E+00
  0.00000000E+00  0.00000000E+00  0.00000000E+00
  0.00000000E+00  0.00000000E+00  0.00000000E+00
