
0
Gamma
       9      11       7
  0.0003  0.0002  0.0001
