
0
Gamma
       5       5       7
  0.0000  0.0000  0.0000
