#------------------------------------------------------------
# ALL DATASETS
#------------------------------------------------------------

          acell   7.5055909000e+00  7.5055909000e+00  7.5055909000e+00
        chkprim  0
           ecut  15
         irdwfk  1
            ixc  1
          natom  2
          ngkpt  4 4 4
        nshiftk  2
          nstep  10
         ntypat  1
         occopt  4
          rprim       0.5     -0.5        0
                      0.5      0.5        0
                        0        0        1
         shiftk       0.5        0      0.5
                        0      0.5      0.5
         toldfe     1e-06
         tsmear      0.04
          typat  1 1
           xred         0        0        0
                      0.5      0.5      0.5
          znucl  13

