ndtset 2
#------------------------------------------------------------
# ALL DATASETS
#------------------------------------------------------------

     acell   3.0235615824e+01  3.0235615824e+01  3.0235615824e+01

    diemac  2
     dtion  100
      ecut  30
    enunit  1
    getwfk  -1
    ionmov  1
     natom  16
     nband  32
      nkpt  1
     nstep  80
     ntime  300
    ntypat  4
 restartxf  -1
    tolmxf     1e-7
    tolrff     1e-2
     typat  1 1 1 1 1 2 2 2 2 2 3 3 3 3 3 4
    xangst1  -2.8188597421e+00 -1.8565303615e+00 -3.7458724861e-01
            -3.4509680816e+00 -3.0894309060e-01 -8.8323145690e-01
             3.8267241617e+00 -3.6534987593e-01  9.5121458890e-01
             2.0071491111e+00 -2.1657514106e+00  7.2511819475e-01
            -2.0978501079e+00  1.6013677841e+00 -5.5171305050e-01
            -5.7132357015e-02  1.6942657596e+00 -2.8111542586e-01
             9.9269627297e-01  7.8174212798e-01  5.2081433422e-02
             2.8027979457e+00 -1.5987302014e-01  6.5185549704e-01
             6.8378084463e-01 -5.7177878928e-01  2.0217406658e-01
            -1.4748748127e+00 -3.6044213749e-01 -2.4644044053e-01
             2.3132854312e+00  1.0154864558e+00  3.4590139659e-01
             1.8601488378e+00 -1.1646755739e+00  5.7172066275e-01
            -5.0471111700e-01 -1.1896287987e+00  5.9687686191e-02
            -1.2916733664e+00  9.8244290748e-01 -4.0875916994e-01
            -2.7425869898e+00 -8.4042540453e-01 -3.7746531445e-01
            -4.7926030481e-02  2.9080934279e+00 -4.3644141945e-01


    xangst2
             3.97379        0.49147       -0.03300
             2.52464       -1.66978       -0.03639
            -2.57412        1.02515        0.09089
            -2.39636       -2.46398        0.04351
            -3.36474       -1.18544       -0.34792
             2.88379        0.40887       -0.02082
             0.79064       -0.45355       -0.00382
             0.73714        0.96793        0.01240
            -1.47376       -0.69316        0.04312
            -0.57519        1.60314        0.04191
             2.03829        1.45208        0.00169
             2.14603       -0.75807       -0.02555
            -0.30857       -1.27924        0.00013
            -1.64519        0.66203        0.04833
            -2.58502       -1.49675        0.18802
            -0.87597        2.78227        0.05866


     znucl  1 6 7 8
