    Zn     V     O
   1.00000000000000
     7.5025934685829991    0.0000000000000000   -0.0399641804342380
     0.0000000000000000    8.2710650479757373    0.0000000000000000
    -3.7669253029184340    0.0000000000000000    9.4387569328441359
     8     8    28
Direct
  0.9466457980573695  0.3252300951879636  0.5214921663991471
  0.0533542239426327  0.6747699348120390  0.4785078336008532
  0.0533542239426327  0.3252300951879636  0.9785078336008529
  0.9466457980573695  0.6747699348120390  0.0214921663991467
  0.4466457680573664  0.8252300651879610  0.5214921663991471
  0.5533542019426305  0.1747699048120363  0.4785078336008532
  0.5533542019426305  0.8252300651879610  0.9785078336008529
  0.4466457680573664  0.1747699048120363  0.0214921663991467
  0.1994547403658931  0.0050752055406538  0.2067258510214356
  0.8005452446341090  0.9949248154593442  0.7932741489785646
  0.8005452446341090  0.0050752055406538  0.2932741489785645
  0.1994547403658931  0.9949248154593442  0.7067258510214354
  0.6994547553658910  0.5050751845406558  0.2067258510214356
  0.3005452446341088  0.4949247864593456  0.7932741489785646
  0.3005452446341088  0.5050751845406558  0.2932741489785645
  0.6994547553658910  0.4949247864593456  0.7067258510214354
  0.0000000000000000  0.0622426474882583  0.2500000000000000
  0.0000000000000000  0.9377573295117436  0.7500000000000000
  0.5000000000000000  0.5622426704882564  0.2500000000000000
  0.5000000000000000  0.4377573595117390  0.7500000000000000
  0.3976110361679460  0.9792404218084678  0.3624257660557382
  0.6023889638320542  0.0207596011915378  0.6375742339442614
  0.6023889638320542  0.9792404218084678  0.1375742339442613
  0.3976110361679460  0.0207596011915378  0.8624257660557386
  0.8976110361679458  0.4792403918084650  0.3624257660557382
  0.1023889638320539  0.5207595781915322  0.6375742339442614
  0.1023889638320539  0.4792403918084650  0.1375742339442613
  0.8976110361679458  0.5207595781915322  0.8624257660557386
  0.2431705437850202  0.1539416876733710  0.1041628472980308
  0.7568294412149753  0.8460583123266290  0.8958371527019691
  0.7568294412149753  0.1539416876733710  0.3958371527019689
  0.2431705437850202  0.8460583123266290  0.6041628472980309
  0.7431705587850247  0.6539416876733710  0.1041628472980308
  0.2568294412149753  0.3460583123266291  0.8958371527019691
  0.2568294412149752  0.6539416876733710  0.3958371527019689
  0.7431705587850247  0.3460583123266291  0.6041628472980309
  0.1456860768927629  0.8319568970944438  0.1155236955299082
  0.8543139081072331  0.1680430729055542  0.8844763124700922
  0.8543139081072331  0.8319568970944438  0.3844763124700924
  0.1456860768927629  0.1680430729055542  0.6155236875299078
  0.6456860918927669  0.3319569270944461  0.1155236955299082
  0.3543139081072322  0.6680431029055562  0.8844763124700922
  0.3543139081072322  0.3319569270944461  0.3844763124700924
  0.6456860918927669  0.6680431029055562  0.6155236875299078
 
  0.00000000E+00  0.00000000E+00  0.00000000E+00
  0.00000000E+00  0.00000000E+00  0.00000000E+00
  0.00000000E+00  0.00000000E+00  0.00000000E+00
  0.00000000E+00  0.00000000E+00  0.00000000E+00
  0.00000000E+00  0.00000000E+00  0.00000000E+00
  0.00000000E+00  0.00000000E+00  0.00000000E+00
  0.00000000E+00  0.00000000E+00  0.00000000E+00
  0.00000000E+00  0.00000000E+00  0.00000000E+00
  0.00000000E+00  0.00000000E+00  0.00000000E+00
  0.00000000E+00  0.00000000E+00  0.00000000E+00
  0.00000000E+00  0.00000000E+00  0.00000000E+00
  0.00000000E+00  0.00000000E+00  0.00000000E+00
  0.00000000E+00  0.00000000E+00  0.00000000E+00
  0.00000000E+00  0.00000000E+00  0.00000000E+00
  0.00000000E+00  0.00000000E+00  0.00000000E+00
  0.00000000E+00  0.00000000E+00  0.00000000E+00
  0.00000000E+00  0.00000000E+00  0.00000000E+00
  0.00000000E+00  0.00000000E+00  0.00000000E+00
  0.00000000E+00  0.00000000E+00  0.00000000E+00
  0.00000000E+00  0.00000000E+00  0.00000000E+00
  0.00000000E+00  0.00000000E+00  0.00000000E+00
  0.00000000E+00  0.00000000E+00  0.00000000E+00
  0.00000000E+00  0.00000000E+00  0.00000000E+00
  0.00000000E+00  0.00000000E+00  0.00000000E+00
  0.00000000E+00  0.00000000E+00  0.00000000E+00
  0.00000000E+00  0.00000000E+00  0.00000000E+00
  0.00000000E+00  0.00000000E+00  0.00000000E+00
  0.00000000E+00  0.00000000E+00  0.00000000E+00
  0.00000000E+00  0.00000000E+00  0.00000000E+00
  0.00000000E+00  0.00000000E+00  0.00000000E+00
  0.00000000E+00  0.00000000E+00  0.00000000E+00
  0.00000000E+00  0.00000000E+00  0.00000000E+00
  0.00000000E+00  0.00000000E+00  0.00000000E+00
  0.00000000E+00  0.00000000E+00  0.00000000E+00
  0.00000000E+00  0.00000000E+00  0.00000000E+00
  0.00000000E+00  0.00000000E+00  0.00000000E+00
  0.00000000E+00  0.00000000E+00  0.00000000E+00
  0.00000000E+00  0.00000000E+00  0.00000000E+00
  0.00000000E+00  0.00000000E+00  0.00000000E+00
  0.00000000E+00  0.00000000E+00  0.00000000E+00
  0.00000000E+00  0.00000000E+00  0.00000000E+00
  0.00000000E+00  0.00000000E+00  0.00000000E+00
  0.00000000E+00  0.00000000E+00  0.00000000E+00
  0.00000000E+00  0.00000000E+00  0.00000000E+00
