 P
1.0
   4.0616348000000002   0.0000000000000000   0.0000000000000000
   0.0000000000000000   4.0616348000000002   0.0000000000000000
   0.0000000000000000   0.0000000000000000   5.2539807999999999
 P
 4
Direct
   0.0000000000000000   0.0000000000000000   0.7078365037040105
   0.0000000000000000   0.0000000000000000   0.2921634962959895
   0.5000000000000000   0.5000000000000000   0.2078365037040104
   0.5000000000000000   0.5000000000000000   0.7921634962959895
