Automatic mesh
0
Monkhorst-Pack
4 2 4 
0 0 0

