Automatic mesh
0
Gamma
       9       6       9
  0.0000  0.0000  0.0000
