CaMnO3  LDA at PBEsol Vol               
   1.00000000000000     
     5.2638668096977437    0.0000000000000000    0.0000000000000000
     0.0000000000000000    7.3966619151498190    0.0000000000000000
     0.0000000000000000    0.0000000000000000    5.2221825850655508
Ca Mn O
   4   4  12
Direct
  0.0409512209249379  0.7499999591454084  0.4919844060354630
  0.4590487499714487  0.2500000324628733  0.9919842684403489
  0.5409512257941494  0.7499999937742126  0.0080155932626666
  0.9590487440088421  0.2499999992039127  0.5080157243583578
  1.0000000195573258 -0.0000000168602684  1.0000000590122455
  0.5000000023973721 -0.0000000295533891  0.4999999563295012
  0.9999999878766361  0.5000000194457498  0.0000000450638395
  0.4999999929994375  0.5000000219364226  0.4999999491736172
  0.4890639198460410  0.7499999959067483  0.5678119133376970
  0.0109362137028363  0.2499999933461441  0.0678120366071423
  0.9890639798098676  0.7500000123306455  0.9321880847090560
  0.5109362162002337  0.2499999996640420  0.4321879536387835
  0.2877994771072752  0.5356918420621749  0.2112585022168396
  0.2122004304614080  0.4643082478538327  0.7112584111495375
  0.7877996506288119  0.9643081476865796  0.2887416549666818
  0.7122003228285877  0.0356917397564052  0.7887417283106760
  0.7122004250559000  0.4643082982546227  0.7887415636869590
  0.7877994594454647  0.5356918195848406  0.2887414898887172
  0.2122003214719722  0.0356917299440119  0.7112583040702917
  0.2877996399114599  0.9643081940550188  0.2112583557415911
 
  0.00000000E+00  0.00000000E+00  0.00000000E+00
  0.00000000E+00  0.00000000E+00  0.00000000E+00
  0.00000000E+00  0.00000000E+00  0.00000000E+00
  0.00000000E+00  0.00000000E+00  0.00000000E+00
  0.00000000E+00  0.00000000E+00  0.00000000E+00
  0.00000000E+00  0.00000000E+00  0.00000000E+00
  0.00000000E+00  0.00000000E+00  0.00000000E+00
  0.00000000E+00  0.00000000E+00  0.00000000E+00
  0.00000000E+00  0.00000000E+00  0.00000000E+00
  0.00000000E+00  0.00000000E+00  0.00000000E+00
  0.00000000E+00  0.00000000E+00  0.00000000E+00
  0.00000000E+00  0.00000000E+00  0.00000000E+00
  0.00000000E+00  0.00000000E+00  0.00000000E+00
  0.00000000E+00  0.00000000E+00  0.00000000E+00
  0.00000000E+00  0.00000000E+00  0.00000000E+00
  0.00000000E+00  0.00000000E+00  0.00000000E+00
  0.00000000E+00  0.00000000E+00  0.00000000E+00
  0.00000000E+00  0.00000000E+00  0.00000000E+00
  0.00000000E+00  0.00000000E+00  0.00000000E+00
  0.00000000E+00  0.00000000E+00  0.00000000E+00
