$SYSTEM         =  CaMnO3 Pnma;
ADDGRID         =  .TRUE.;
AMIX            =  0.8;
AMIX_MAG        =  0.4;
BMIX            =  0.9;
BMIX_MAG        =  0.9;
EDIFF           =  1e-09;
EDIFFG          =  -5e-06;
ENCUT           =  500;
IBRION          =  1;
ISIF            =  2;
ISMEAR          =  -5;
ISPIN           =  2;
ISYM            =  0;
I_CONSTRAINED_M =  1;
LAMBDA          =  10;
LMAXMIX         =  4;
LORBIT          =  11;
LPLANE          =  .TRUE.;
LREAL           =  .FALSE.;
LSCALU          =  .FALSE.;
LSORBIT         =  .TRUE.;
LWAVE           =  .FALSE.;
MAGMOM          =   12*0  0.0000000000e+00  4.1647200000e-02  2.3859677000e+00  0.0000000000e+00  4.1647200000e-02 -2.3859677000e+00  0.0000000000e+00  4.1647200000e-02 -2.3859677000e+00  0.0000000000e+00  4.1647200000e-02  2.3859677000e+00 60*0;
M_CONSTR        =   12*0  0.0000000000e+00  4.1647200000e-02  2.3859677000e+00  0.0000000000e+00  4.1647200000e-02 -2.3859677000e+00  0.0000000000e+00  4.1647200000e-02 -2.3859677000e+00  0.0000000000e+00  4.1647200000e-02  2.3859677000e+00 60*0;
NELM            =  100;
NELMIN          =  6;
NPAR            =  2;
NSIM            =  4;
NSW             =  0;
PREC            =  Accurate;
RWIGS           =         2    1.87    1.78    1.24;
SAXIS           =   0 0 1;
