Sb Bi                                  
   1.00000000000000    
     2.2550177359083330   -1.3019362017075444    3.9719704903035633
    -0.0000010379307978    2.6038709124743149    3.9719706053124120
    -2.2550200349057485   -1.3019363534706272    3.9719716020314566
   Sb   Bi
     1     1
Direct
  0.6471797416236265  0.6471797287806408  0.6471794550590899
  0.1819702583763720  0.1819702712193579  0.1819705449409085
