 Be C
1.0
   6.7709799999999998   0.0000000000000000   0.0000000000000000
   0.0000000000000000   6.7709799999999998   0.0000000000000000
   3.3854899999999999   3.3854899999999999   2.1723299999999992
 Be C
 9 4
Direct
   0.9750300000000000   0.8253300000000000   0.5463800000000000
   0.4785900000000000   0.6282900000000000   0.5463800000000000
   0.3717100000000000   0.0249700000000000   0.4536200000000000
   0.1746700000000000   0.5214100000000000   0.4536200000000000
   0.7500000000000000   0.2500000000000000   0.5000000000000000
   0.6575700000000000   0.9468900000000000   0.5019800000000000
   0.8404500000000000   0.5511300000000000   0.5019800000000000
   0.4488700000000000   0.3424300000000000   0.4980200000000000
   0.0531100000000000   0.1595500000000000   0.4980200000000000
   0.7669700000000000   0.3697300000000000   0.0405400000000000
   0.1924900000000000   0.5897300000000000   0.0405400000000000
   0.4102700000000000   0.2330300000000000   0.9594600000000000
   0.6302700000000000   0.8075100000000000   0.9594600000000000
